; benchmark generated from python API
(set-info :status unknown)
(declare-datatypes ((RealState 0)) (((RMk1 (rval1 Real)) (RMk2 (rval2 Real)))))
 (declare-fun xuscore2dollarskuscore5 () Real)
(declare-fun t7uscore0dollarskuscore2 () Real)
(declare-fun yuscore2dollarskuscore13 () Real)
(declare-fun stuscore2dollarskuscore13 () Real)
(assert
 (let (($x156 (exists ((ts7uscore2_st RealState) (val!218 Real) )(let (($x226 (<= (+ t7uscore0dollarskuscore2 yuscore2dollarskuscore13) (+ 10.0 (+ t7uscore0dollarskuscore2 xuscore2dollarskuscore5)))))
 (let (($x103 (= stuscore2dollarskuscore13 3.0)))
 (let (($x171 (or $x103 $x226)))
 (let (($x170 (<= yuscore2dollarskuscore13 (+ 10.0 xuscore2dollarskuscore5))))
 (let (($x177 (<= yuscore2dollarskuscore13 12.0)))
 (let (($x236 (>= yuscore2dollarskuscore13 1.0)))
 (let (($x165 (= stuscore2dollarskuscore13 0.0)))
 (let (($x118 (> yuscore2dollarskuscore13 10.0)))
 (let (($x237 (>= t7uscore0dollarskuscore2 0.0)))
 (let (($x161 (<= (+ (rval2 ts7uscore2_st) yuscore2dollarskuscore13) 10.0)))
 (let (($x120 (and (<= 0.0 (rval2 ts7uscore2_st)) (<= (rval2 ts7uscore2_st) t7uscore0dollarskuscore2))))
 (let (($x54 (= stuscore2dollarskuscore13 1.0)))
 (let (($x39 (and (and (and (and (and $x54 (=> $x120 $x161)) $x237) $x118) $x165) $x236)))
 (let (($x94 (not (= ts7uscore2_st (RMk1 val!218)))))
 (and $x94 (=> (and (and $x39 $x177) $x170) $x171)))))))))))))))))
 ))
 (not $x156)))
(check-sat)
